62
58
58
58
58
58
58
58
58
54
54
56
56
56
56
54
54
54
52
52
52
52
52
44
42
42
42
42
42
42
40
40
40
40
38
36
36
36
36
38
36
36
36
36
36
36
36
36
36
34
32
32
32
32
32
32
32
32
32
32
32
32
30
26
26
26
24
24
24
24
24
22
22
22
20
20
20
20
20
20
20
22
22
22
22
20
18
18
14
14
14
14
14
14
14
14
14
14
14
14
14
14
14
14
14
14
14
14
14
14
14
14
14
14
10
10
10
10
10
8
8
8
8
8
8
8
8
8
8
8
8
8
8
8
8
8
8
8
8
8
8
8
8
8
8
8
8
8
8
8
8
8
8
8
8
8
8
8
8
8
8
8
